! Opt r2SCAN-3c noautostart miniprint nopop PrintGap

%elprop
   Polar 1
end

%maxcore 3000

%pal
   nprocs 16
end

* xyz 0 1
  O   0.00000000000000      0.00000000000822      0.00284502980613
  H   0.00000000000000      0.75815296217397      0.59462048509367
  H   0.00000000000000     -0.75815296218219      0.59462048510020
*
